k = 45;
b = 20;
AtomicConstraints =  [|
8, 14|
	9, 14|
	9, 15|
	10, 14|
	10, 15|
	10, 16|
	11, 14|
	11, 15|
	11, 16|
	11, 17|
	11, 18|
	11, 19|
	12, 14|
	12, 15|
	12, 16|
	12, 17|
	12, 18|
	12, 19|
	12, 20|
	32, 26|
	32, 27|
	32, 28|
	32, 30|
	32, 31|
	32, 13|
	32, 22|
	32, 41|
	32, 21|
	32, 42|
	32, 43|
	32, 36|
	32, 37|
	32, 34|
	32, 35|
	32, 38|
	32, 39|
	26, 13|
	26, 22|
	26, 41|
	26, 21|
	26, 42|
	26, 43|
	26, 36|
	26, 37|
	26, 34|
	26, 35|
	26, 40|
	26, 38|
	26, 39|
	27, 26|
	27, 30|
	27, 13|
	27, 22|
	27, 41|
	27, 21|
	27, 42|
	27, 43|
	27, 36|
	27, 37|
	27, 34|
	27, 35|
	27, 40|
	27, 38|
	27, 39|
	28, 26|
	28, 27|
	28, 30|
	28, 13|
	28, 22|
	28, 41|
	28, 21|
	28, 42|
	28, 43|
	28, 36|
	28, 37|
	28, 34|
	28, 35|
	28, 40|
	28, 38|
	28, 39|
	29, 26|
	29, 27|
	29, 28|
	29, 30|
	29, 31|
	29, 13|
	29, 22|
	29, 41|
	29, 21|
	29, 42|
	29, 43|
	29, 36|
	29, 37|
	29, 34|
	29, 35|
	29, 40|
	29, 38|
	29, 39|
	30, 13|
	30, 22|
	30, 41|
	30, 21|
	30, 42|
	30, 43|
	30, 36|
	30, 37|
	30, 34|
	30, 35|
	30, 38|
	30, 39|
	31, 26|
	31, 27|
	31, 30|
	31, 13|
	31, 22|
	31, 41|
	31, 21|
	31, 42|
	31, 43|
	31, 36|
	31, 37|
	31, 34|
	31, 35|
	31, 38|
	31, 39|
	23, 21|
	23, 42|
	23, 43|
	23, 14|
	23, 15|
	23, 16|
	23, 17|
	23, 33|
	23, 44|
	23, 45|
	23, 18|
	23, 19|
	23, 20|
	24, 41|
	24, 21|
	24, 42|
	24, 43|
	24, 14|
	24, 15|
	24, 16|
	24, 17|
	24, 33|
	24, 44|
	24, 45|
	24, 18|
	24, 19|
	24, 20|
	25, 22|
	25, 41|
	25, 21|
	25, 42|
	25, 43|
	25, 14|
	25, 15|
	25, 16|
	25, 17|
	25, 33|
	25, 44|
	25, 45|
	25, 18|
	25, 19|
	25, 20|
	15, 18|
	16, 18|
	16, 19|
	17, 18|
	17, 19|
	17, 20|
	36, 13|
	36, 22|
	36, 41|
	36, 21|
	36, 42|
	36, 43|
	36, 34|
	36, 35|
	37, 13|
	37, 22|
	37, 41|
	37, 21|
	37, 42|
	37, 43|
	37, 36|
	37, 34|
	37, 35|
	34, 13|
	34, 22|
	34, 41|
	34, 21|
	34, 42|
	34, 43|
	35, 13|
	35, 22|
	35, 41|
	35, 21|
	35, 42|
	35, 43|
	35, 34|];
DisjunctiveConstraints =  [|2, 3, 2, 1|
	3, 4, 3, 2|
	4, 5, 4, 3|
	5, 6, 5, 4|
	6, 7, 6, 5|
	7, 8, 7, 6|
	8, 9, 8, 7|
	9, 10, 9, 8|
	10, 11, 10, 9|
	10, 18, 38, 10|
	10, 34, 10, 14|
	11, 12, 11, 10|
	11, 18, 11, 38|
	11, 20, 40, 11|
	11, 36, 11, 16|
	12, 19, 12, 39|
	12, 37, 12, 17|
	32, 19, 32, 39|
	32, 40, 20, 32|
	26, 19, 26, 39|
	27, 19, 27, 39|
	28, 19, 28, 39|
	29, 19, 29, 39|
	30, 19, 30, 39|
	30, 40, 20, 30|
	31, 19, 31, 39|
	31, 40, 20, 31|
	23, 21, 1, 23|
	24, 25, 24, 23|
	24, 21, 24, 1|
	25, 22, 2, 25|
	22, 13, 22, 41|
	41, 22, 41, 21|
	21, 41, 21, 42|
	42, 21, 42, 43|
	15, 16, 15, 14|
	16, 17, 16, 15|
	44, 45, 44, 33|
	19, 20, 19, 18|
	39, 40, 39, 38|];
SoftAtomicConstraints =  [|
2, 1|
3, 2|
4, 3|
5, 4|
6, 5|
7, 6|
8, 7|
9, 8|
10, 9|
11, 10|
12, 11|
15, 14|
16, 15|
17, 16|
33, 17|
19, 18|
20, 19|
41, 21|
13, 22|
24, 23|
25, 24|
26, 30|
28, 31|
29, 32|
44, 33|
39, 38|
40, 39|
22, 41|
21, 42|
42, 43|
45, 44|];
DirectSuccessors =  [];
